
******************************************************************************
This program contains Ipopt, a library for large-scale nonlinear optimization.
 Ipopt is released as open source code under the Eclipse Public License (EPL).
         For more information visit http://projects.coin-or.org/Ipopt

This version of Ipopt was compiled from source code available at
    https://github.com/IDAES/Ipopt as part of the Institute for the Design of
    Advanced Energy Systems Process Systems Engineering Framework (IDAES PSE
    Framework) Copyright (c) 2018-2019. See https://github.com/IDAES/idaes-pse.

This version of Ipopt was compiled using HSL, a collection of Fortran codes
    for large-scale scientific computation.  All technical papers, sales and
    publicity material resulting from use of the HSL codes within IPOPT must
    contain the following acknowledgement:
        HSL, a collection of Fortran codes for large-scale scientific
        computation. See http://www.hsl.rl.ac.uk.
******************************************************************************

This is Ipopt version 3.13.2, running with linear solver ma27.

Number of nonzeros in equality constraint Jacobian...:      808
Number of nonzeros in inequality constraint Jacobian.:        0
Number of nonzeros in Lagrangian Hessian.............:      702

Total number of variables............................:      351
                     variables with only lower bounds:      108
                variables with lower and upper bounds:      189
                     variables with only upper bounds:        0
Total number of equality constraints.................:      350
Total number of inequality constraints...............:        0
        inequality constraints with only lower bounds:        0
   inequality constraints with lower and upper bounds:        0
        inequality constraints with only upper bounds:        0

iter    objective    inf_pr   inf_du lg(mu)  ||d||  lg(rg) alpha_du alpha_pr  ls
   0  0.0000000e+00 7.06e-01 1.42e-14  -1.0 0.00e+00    -  0.00e+00 0.00e+00   0
   1  1.4810274e+00 6.38e-01 1.60e+05  -1.0 1.27e+05    -  5.37e-01 6.51e-01h  1
   2  1.5392863e+00 6.09e-01 1.53e+05  -1.0 3.99e+04    -  8.46e-01 3.77e-02h  1
   3  1.6213390e+00 5.78e-01 1.45e+05  -1.0 1.83e+05    -  8.07e-01 5.01e-02h  1
   4  1.1748127e+01 4.08e-01 1.45e+04  -1.0 1.77e+05    -  8.15e-01 9.90e-01h  1
   5  1.3873771e+01 4.80e-02 1.27e+03  -1.0 1.96e+04    -  5.95e-01 9.90e-01h  1
   6  1.3916859e+01 1.23e-03 1.45e+03  -1.0 3.76e+02    -  9.85e-01 9.90e-01h  1
   7  1.3941581e+01 1.86e-05 8.21e+01  -1.0 2.12e+02    -  9.90e-01 9.90e-01h  1
   8  1.3916483e+01 1.74e-05 4.00e+06  -3.8 1.41e+03    -  1.00e+00 1.51e-01f  1
   9  1.3916611e+01 3.05e-09 1.44e+03  -3.8 1.09e+00    -  1.00e+00 1.00e+00h  1
iter    objective    inf_pr   inf_du lg(mu)  ||d||  lg(rg) alpha_du alpha_pr  ls
  10  1.3916597e+01 1.72e-10 5.55e+06  -3.8 1.17e-01    -  1.00e+00 1.00e+00h  1
In iteration 10, 27 Slacks too small, adjusting variable bounds
  11  1.3916597e+01 1.73e-10 3.69e+10  -3.8 1.99e-05    -  1.00e+00 1.00e+00h  1
  12  1.3916597e+01 1.41e-10 1.36e-02  -3.8 3.28e-07    -  1.00e+00 1.00e+00h  1
  13  1.3916446e+01 7.11e-11 5.07e+07  -9.0 1.28e+00    -  1.00e+00 9.99e-01F  1
  14  1.3916446e+01 4.30e-11 7.19e-09  -9.0 7.71e-06    -  1.00e+00 1.00e+00h  1

Number of Iterations....: 14

                                   (scaled)                 (unscaled)
Objective...............:   1.3916446319327971e+01    1.3916446319327971e+01
Dual infeasibility......:   7.1886461228132248e-09    7.1886461228132248e-09
Constraint violation....:   4.2987391424276211e-11    4.2987391424276211e-11
Complementarity.........:   9.0909090909090931e-10    9.0909090909090931e-10
Overall NLP error.......:   4.9850600481125408e-11    7.1886461228132248e-09


Number of objective function evaluations             = 16
Number of objective gradient evaluations             = 15
Number of equality constraint evaluations            = 16
Number of inequality constraint evaluations          = 0
Number of equality constraint Jacobian evaluations   = 15
Number of inequality constraint Jacobian evaluations = 0
Number of Lagrangian Hessian evaluations             = 14
Total CPU secs in IPOPT (w/o function evaluations)   =      0.036
Total CPU secs in NLP function evaluations           =      0.301

EXIT: Optimal Solution Found.
